# Solution for model Master problem
# Objective value = 6012
X_0_0 1
X_1_0 0
X_2_0 0
X_3_0 0
X_4_0 0
X_5_0 0
X_6_0 0
X_7_0 0
X_8_0 1
X_9_0 1
X_0_4 0
X_1_4 0
X_2_4 0
X_3_4 0
X_4_4 0
X_5_4 0
X_6_4 0
X_7_4 0
X_8_4 0
X_9_4 1
X_0_6 0
X_1_6 0
X_2_6 0
X_3_6 0
X_4_6 0
X_5_6 1
X_6_6 0
X_7_6 0
X_8_6 0
X_9_6 0
X_0_12 0
X_1_12 0
X_2_12 0
X_3_12 0
X_4_12 0
X_5_12 0
X_6_12 0
X_7_12 0
X_8_12 0
X_9_12 1
X_0_14 0
X_1_14 0
X_2_14 0
X_3_14 0
X_4_14 0
X_5_14 0
X_6_14 1
X_7_14 0
X_8_14 0
X_9_14 0
X_0_16 0
X_1_16 0
X_2_16 0
X_3_16 0
X_4_16 1
X_5_16 0
X_6_16 0
X_7_16 0
X_8_16 0
X_9_16 1
X_0_24 0
X_1_24 0
X_2_24 0
X_3_24 0
X_4_24 0
X_5_24 0
X_6_24 0
X_7_24 0
X_8_24 0
X_9_24 1
X_0_26 0
X_1_26 0
X_2_26 0
X_3_26 0
X_4_26 0
X_5_26 0
X_6_26 0
X_7_26 1
X_8_26 0
X_9_26 0
X_0_30 0
X_1_30 0
X_2_30 0
X_3_30 0
X_4_30 0
X_5_30 0
X_6_30 0
X_7_30 0
X_8_30 0
X_9_30 1
X_0_32 0
X_1_32 1
X_2_32 0
X_3_32 0
X_4_32 0
X_5_32 0
X_6_32 0
X_7_32 0
X_8_32 0
X_9_32 0
X_0_36 0
X_1_36 0
X_2_36 0
X_3_36 0
X_4_36 0
X_5_36 0
X_6_36 0
X_7_36 0
X_8_36 0
X_9_36 1
X_0_38 0
X_1_38 0
X_2_38 1
X_3_38 0
X_4_38 0
X_5_38 0
X_6_38 0
X_7_38 0
X_8_38 0
X_9_38 0
X_0_40 0
X_1_40 0
X_2_40 0
X_3_40 0
X_4_40 0
X_5_40 0
X_6_40 0
X_7_40 0
X_8_40 0
X_9_40 1
X_0_42 0
X_1_42 0
X_2_42 0
X_3_42 1
X_4_42 0
X_5_42 0
X_6_42 0
X_7_42 0
X_8_42 0
X_9_42 0
X_0_44 0
X_1_44 0
X_2_44 0
X_3_44 0
X_4_44 0
X_5_44 0
X_6_44 0
X_7_44 0
X_8_44 0
X_9_44 1
X_0_46 0
X_1_46 0
X_2_46 0
X_3_46 0
X_4_46 0
X_5_46 0
X_6_46 0
X_7_46 0
X_8_46 0
X_9_46 0
X_0_48 0
X_1_48 0
X_2_48 0
X_3_48 0
X_4_48 0
X_5_48 0
X_6_48 0
X_7_48 0
X_8_48 0
X_9_48 0
X_0_50 0
X_1_50 0
X_2_50 0
X_3_50 0
X_4_50 0
X_5_50 0
X_6_50 0
X_7_50 0
X_8_50 0
X_9_50 0
X_0_52 0
X_1_52 0
X_2_52 0
X_3_52 0
X_4_52 0
X_5_52 0
X_6_52 0
X_7_52 0
X_8_52 0
X_9_52 0
X_0_54 0
X_1_54 0
X_2_54 0
X_3_54 0
X_4_54 0
X_5_54 0
X_6_54 0
X_7_54 0
X_8_54 0
X_9_54 0
X_0_56 0
X_1_56 0
X_2_56 0
X_3_56 0
X_4_56 0
X_5_56 0
X_6_56 0
X_7_56 0
X_8_56 0
X_9_56 0
X_0_58 0
X_1_58 0
X_2_58 0
X_3_58 0
X_4_58 0
X_5_58 0
X_6_58 0
X_7_58 0
X_8_58 0
X_9_58 0
theta_0_0_0 1
theta_0_0_1 33
theta_0_0_2 17
theta_0_0_3 7
theta_1_0_0 1
theta_1_0_1 43
theta_1_0_2 17
theta_1_0_3 27
Z_0_0_0_1_0 192
ZP_0_0_0_1_0 192
Z_1_0_0_1_0 252
ZP_1_0_0_1_0 252
Z_0_1_0_1_0 192
ZP_0_1_0_1_0 192
Z_1_1_0_1_0 252
ZP_1_1_0_1_0 252
Z_0_0_0_0_1 252
ZP_0_0_0_0_1 -252
Z_1_0_0_0_1 252
ZP_1_0_0_0_1 -252
Z_0_1_0_0_1 192
ZP_0_1_0_0_1 -192
Z_1_1_0_0_1 192
ZP_1_1_0_0_1 -192
Z_0_0_0_2_1 156
ZP_0_0_0_2_1 -156
Z_1_0_0_2_1 156
ZP_1_0_0_2_1 -156
Z_0_1_0_2_1 96
ZP_0_1_0_2_1 -96
Z_1_1_0_2_1 96
ZP_1_1_0_2_1 -96
Z_0_0_0_1_2 96
ZP_0_0_0_1_2 96
Z_1_0_0_1_2 156
ZP_1_0_0_1_2 156
Z_0_1_0_1_2 96
ZP_0_1_0_1_2 96
Z_1_1_0_1_2 156
ZP_1_1_0_1_2 156
Z_0_0_0_3_2 60
ZP_0_0_0_3_2 -60
Z_1_0_0_3_2 60
ZP_1_0_0_3_2 60
Z_0_1_0_3_2 60
ZP_0_1_0_3_2 -60
Z_1_1_0_3_2 60
ZP_1_1_0_3_2 60
Z_0_0_0_2_3 60
ZP_0_0_0_2_3 -60
Z_1_0_0_2_3 60
ZP_1_0_0_2_3 -60
Z_0_1_0_2_3 60
ZP_0_1_0_2_3 60
Z_1_1_0_2_3 60
ZP_1_1_0_2_3 60
eta_0_0 720
eta_0_1 2220
eta_0_2 720
eta_0_3 2280
tmpp_var00 1
tmpp_var10 33
tmpp_var20 39
tmpp_var30 43
tmpp_var40 17
tmpp_var50 7
tmpp_var60 15
tmpp_var70 27
theta 6012
AA0 1
BB0 43
tau_0_0 0
tau_1_0 0
tau_0_4 0
tau_1_4 0
tau_0_6 1
tau_1_6 1
tau_0_12 0
tau_1_12 0
tau_0_14 1
tau_1_14 1
tau_0_16 1
tau_1_16 1
tau_0_24 0
tau_1_24 0
tau_0_26 1
tau_1_26 1
tau_0_30 0
tau_1_30 0
tau_0_32 1
tau_1_32 1
tau_0_36 0
tau_1_36 0
tau_0_38 1
tau_1_38 1
tau_0_40 1
tau_1_40 1
tau_0_42 1
tau_1_42 1
tau_0_44 0
tau_1_44 1
tau_0_46 0
tau_1_46 1
tau_0_48 0
tau_1_48 1
tau_0_50 0
tau_1_50 1
tau_0_52 0
tau_1_52 1
tau_0_54 0
tau_1_54 1
tau_0_56 0
tau_1_56 1
tau_0_58 0
tau_1_58 1
